10J3M/DAT/10J3MULA-18.dat
10 3
16.6705 277.9056
40.1318 1610.5614
27.9778 782.7573
3.5485 12.5919
38.8008 1505.5021
32.4796 1054.9244
9.0519 81.9369
24.9698 623.4909
5.6232 31.6204
18.4838 341.6509
2107.6473