10J3M/SOL/10J3MULA-18.sol
solution status: optimal solution found
objective value:                     72.5792333333333
x#1#2                               0.427779191977351 	(obj:0)
x#1#3                               0.572220808022649 	(obj:0)
x#2#1                               0.944614437895868 	(obj:0)
x#2#3                              0.0553855621041324 	(obj:0)
x#3#1                               0.587843062520425 	(obj:0)
x#3#3                               0.412156937479575 	(obj:0)
x#4#1                                               1 	(obj:0)
x#5#2                               0.206143695838099 	(obj:0)
x#5#3                               0.793856304161901 	(obj:0)
x#6#2                                               1 	(obj:0)
x#7#1                                               1 	(obj:0)
x#8#2                                               1 	(obj:0)
x#9#1                                               1 	(obj:0)
x#10#3                                              1 	(obj:0)
z                                    72.5792333333333 	(obj:1)
